6

0   23   7   0   7   13
23   0   1   15   8   4
7   1   0   19   5   14
0   15   19   0   23   8
7   8   5   23   0   21
13   4   14   8   21   0

0   37   38   23   39   34
37   0   75   52   76   55
38   75   0   33   17   24
23   52   33   0   50   57
39   76   17   50   0   21
34   55   24   57   21   0